p cnf 449 314
c p distribution  0.875 0.125
c p distribution  0.875 0.125
c p distribution  0.875 0.125
c p distribution  0.875 0.125
c p distribution  0.875 0.125
c p distribution  0.875 0.125
c p distribution  0.875 0.125
c p distribution  0.875 0.125
c p distribution  0.875 0.125
c p distribution  0.875 0.125
c p distribution  0.875 0.125
c p distribution  0.875 0.125
c p distribution  0.875 0.125
c p distribution  0.875 0.125
c p distribution  0.875 0.125
c p distribution  0.875 0.125
c p distribution  0.875 0.125
c p distribution  0.875 0.125
c p distribution  0.875 0.125
c p distribution  0.875 0.125
c p distribution  0.875 0.125
c p distribution  0.875 0.125
c p distribution  0.875 0.125
c p distribution  0.875 0.125
c p distribution  0.875 0.125
c p distribution  0.875 0.125
c p distribution  0.875 0.125
c p distribution  0.875 0.125
c p distribution  0.875 0.125
c p distribution  0.875 0.125
c p distribution  0.875 0.125
c p distribution  0.875 0.125
c p distribution  0.875 0.125
c p distribution  0.875 0.125
c p distribution  0.875 0.125
c p distribution  0.875 0.125
c p distribution  0.875 0.125
c p distribution  0.875 0.125
c p distribution  0.875 0.125
c p distribution  0.875 0.125
c p distribution  0.875 0.125
c p distribution  0.875 0.125
c p distribution  0.875 0.125
c p distribution  0.875 0.125
c p distribution  0.875 0.125
c p distribution  0.875 0.125
c p distribution  0.875 0.125
c p distribution  0.875 0.125
c p distribution  0.875 0.125
c p distribution  0.875 0.125
c p distribution  0.875 0.125
c p distribution  0.875 0.125
c p distribution  0.875 0.125
c p distribution  0.875 0.125
c p distribution  0.875 0.125
c p distribution  0.875 0.125
c p distribution  0.875 0.125
c p distribution  0.875 0.125
c p distribution  0.875 0.125
c p distribution  0.875 0.125
c p distribution  0.875 0.125
c p distribution  0.875 0.125
c p distribution  0.875 0.125
c p distribution  0.875 0.125
c p distribution  0.875 0.125
c p distribution  0.875 0.125
c p distribution  0.875 0.125
c p distribution  0.875 0.125
c p distribution  0.875 0.125
c p distribution  0.875 0.125
c p distribution  0.875 0.125
c p distribution  0.875 0.125
c p distribution  0.875 0.125
c p distribution  0.875 0.125
c p distribution  0.875 0.125
c p distribution  0.875 0.125
c p distribution  0.875 0.125
c p distribution  0.875 0.125
c p distribution  0.875 0.125
c p distribution  0.875 0.125
c p distribution  0.875 0.125
c p distribution  0.875 0.125
c p distribution  0.875 0.125
c p distribution  0.875 0.125
c p distribution  0.875 0.125
c p distribution  0.875 0.125
c p distribution  0.875 0.125
c p distribution  0.875 0.125
c p distribution  0.875 0.125
c p distribution  0.875 0.125
c p distribution  0.875 0.125
c p distribution  0.875 0.125
c p distribution  0.875 0.125
c p distribution  0.875 0.125
c p distribution  0.875 0.125
c p distribution  0.875 0.125
c p distribution  0.875 0.125
c p distribution  0.875 0.125
c p distribution  0.875 0.125
c p distribution  0.875 0.125
c p distribution  0.875 0.125
c p distribution  0.875 0.125
c p distribution  0.875 0.125
c p distribution  0.875 0.125
c p distribution  0.875 0.125
c p distribution  0.875 0.125
c p distribution  0.875 0.125
c p distribution  0.875 0.125
c p distribution  0.875 0.125
c p distribution  0.875 0.125
c p distribution  0.875 0.125
c p distribution  0.875 0.125
c p distribution  0.875 0.125
c p distribution  0.875 0.125
c p distribution  0.875 0.125
c p distribution  0.875 0.125
c p distribution  0.875 0.125
c p distribution  0.875 0.125
c p distribution  0.875 0.125
c p distribution  0.875 0.125
c p distribution  0.875 0.125
c p distribution  0.875 0.125
c p distribution  0.875 0.125
c p distribution  0.875 0.125
c p distribution  0.875 0.125
c p distribution  0.875 0.125
c p distribution  0.875 0.125
c p distribution  0.875 0.125
c p distribution  0.875 0.125
c p distribution  0.875 0.125
c p distribution  0.875 0.125
c p distribution  0.875 0.125
c p distribution  0.875 0.125
c p distribution  0.875 0.125
c p distribution  0.875 0.125
c p distribution  0.875 0.125
c p distribution  0.875 0.125
c p distribution  0.875 0.125
c p distribution  0.875 0.125
c p distribution  0.875 0.125
c p distribution  0.875 0.125
c p distribution  0.875 0.125
c p distribution  0.875 0.125
c p distribution  0.875 0.125
c p distribution  0.875 0.125
c p distribution  0.875 0.125
c p distribution  0.875 0.125
c p distribution  0.875 0.125
c p distribution  0.875 0.125
c p distribution  0.875 0.125
c p distribution  0.875 0.125
c p distribution  0.875 0.125
c p distribution  0.875 0.125
c p distribution  0.875 0.125
c p distribution  0.875 0.125
c p distribution  0.875 0.125
449 0
-315 0
424 -398 -1 0
398 -424 -1 0
413 -446 -3 0
446 -413 -3 0
360 -401 -5 0
401 -360 -5 0
380 -415 -7 0
415 -380 -7 0
385 -321 -9 0
321 -385 -9 0
380 -350 -11 0
350 -380 -11 0
440 -325 -13 0
325 -440 -13 0
449 -324 -15 0
324 -449 -15 0
433 -328 -17 0
328 -433 -17 0
410 -320 -19 0
320 -410 -19 0
434 -346 -21 0
346 -434 -21 0
418 -325 -23 0
325 -418 -23 0
364 -444 -25 0
444 -364 -25 0
366 -445 -27 0
445 -366 -27 0
313 -367 -29 0
367 -313 -29 0
325 -381 -31 0
381 -325 -31 0
341 -409 -33 0
409 -341 -33 0
390 -445 -35 0
445 -390 -35 0
370 -407 -37 0
407 -370 -37 0
313 -391 -39 0
391 -313 -39 0
417 -365 -41 0
365 -417 -41 0
406 -414 -43 0
414 -406 -43 0
405 -343 -45 0
343 -405 -45 0
351 -331 -47 0
331 -351 -47 0
341 -336 -49 0
336 -341 -49 0
449 -349 -51 0
349 -449 -51 0
392 -397 -53 0
397 -392 -53 0
387 -324 -55 0
324 -387 -55 0
370 -404 -57 0
404 -370 -57 0
420 -361 -59 0
361 -420 -59 0
423 -442 -61 0
442 -423 -61 0
346 -393 -63 0
393 -346 -63 0
360 -400 -65 0
400 -360 -65 0
344 -406 -67 0
406 -344 -67 0
380 -434 -69 0
434 -380 -69 0
339 -365 -71 0
365 -339 -71 0
392 -355 -73 0
355 -392 -73 0
446 -444 -75 0
444 -446 -75 0
448 -313 -77 0
313 -448 -77 0
399 -446 -79 0
446 -399 -79 0
377 -353 -81 0
353 -377 -81 0
377 -353 -83 0
353 -377 -83 0
363 -352 -85 0
352 -363 -85 0
340 -437 -87 0
437 -340 -87 0
364 -414 -89 0
414 -364 -89 0
355 -378 -91 0
378 -355 -91 0
382 -385 -93 0
385 -382 -93 0
449 -361 -95 0
361 -449 -95 0
328 -427 -97 0
427 -328 -97 0
347 -352 -99 0
352 -347 -99 0
447 -404 -101 0
404 -447 -101 0
387 -356 -103 0
356 -387 -103 0
341 -379 -105 0
379 -341 -105 0
437 -390 -107 0
390 -437 -107 0
350 -403 -109 0
403 -350 -109 0
439 -374 -111 0
374 -439 -111 0
422 -375 -113 0
375 -422 -113 0
374 -319 -115 0
319 -374 -115 0
371 -425 -117 0
425 -371 -117 0
323 -313 -119 0
313 -323 -119 0
441 -395 -121 0
395 -441 -121 0
442 -427 -123 0
427 -442 -123 0
369 -328 -125 0
328 -369 -125 0
388 -395 -127 0
395 -388 -127 0
381 -358 -129 0
358 -381 -129 0
433 -427 -131 0
427 -433 -131 0
370 -344 -133 0
344 -370 -133 0
315 -335 -135 0
335 -315 -135 0
422 -314 -137 0
314 -422 -137 0
438 -318 -139 0
318 -438 -139 0
371 -376 -141 0
376 -371 -141 0
333 -411 -143 0
411 -333 -143 0
316 -330 -145 0
330 -316 -145 0
366 -443 -147 0
443 -366 -147 0
425 -362 -149 0
362 -425 -149 0
329 -378 -151 0
378 -329 -151 0
447 -365 -153 0
365 -447 -153 0
408 -326 -155 0
326 -408 -155 0
348 -389 -157 0
389 -348 -157 0
441 -407 -159 0
407 -441 -159 0
333 -373 -161 0
373 -333 -161 0
347 -352 -163 0
352 -347 -163 0
377 -332 -165 0
332 -377 -165 0
419 -432 -167 0
432 -419 -167 0
424 -426 -169 0
426 -424 -169 0
416 -319 -171 0
319 -416 -171 0
404 -447 -173 0
447 -404 -173 0
323 -391 -175 0
391 -323 -175 0
360 -431 -177 0
431 -360 -177 0
363 -442 -179 0
442 -363 -179 0
370 -343 -181 0
343 -370 -181 0
396 -386 -183 0
386 -396 -183 0
439 -374 -185 0
374 -439 -185 0
348 -416 -187 0
416 -348 -187 0
342 -331 -189 0
331 -342 -189 0
358 -419 -191 0
419 -358 -191 0
324 -349 -193 0
349 -324 -193 0
380 -403 -195 0
403 -380 -195 0
394 -436 -197 0
436 -394 -197 0
394 -373 -199 0
373 -394 -199 0
396 -333 -201 0
333 -396 -201 0
435 -335 -203 0
335 -435 -203 0
437 -369 -205 0
369 -437 -205 0
402 -340 -207 0
340 -402 -207 0
322 -394 -209 0
394 -322 -209 0
321 -385 -211 0
385 -321 -211 0
422 -318 -213 0
318 -422 -213 0
416 -422 -215 0
422 -416 -215 0
380 -415 -217 0
415 -380 -217 0
337 -393 -219 0
393 -337 -219 0
331 -351 -221 0
351 -331 -221 0
428 -359 -223 0
359 -428 -223 0
436 -386 -225 0
386 -436 -225 0
387 -356 -227 0
356 -387 -227 0
337 -431 -229 0
431 -337 -229 0
391 -386 -231 0
386 -391 -231 0
322 -436 -233 0
436 -322 -233 0
317 -361 -235 0
361 -317 -235 0
447 -339 -237 0
339 -447 -237 0
359 -412 -239 0
412 -359 -239 0
372 -443 -241 0
443 -372 -241 0
441 -368 -243 0
368 -441 -243 0
334 -417 -245 0
417 -334 -245 0
383 -350 -247 0
350 -383 -247 0
351 -376 -249 0
376 -351 -249 0
322 -373 -251 0
373 -322 -251 0
419 -435 -253 0
435 -419 -253 0
421 -412 -255 0
412 -421 -255 0
345 -382 -257 0
382 -345 -257 0
425 -362 -259 0
362 -425 -259 0
384 -412 -261 0
412 -384 -261 0
444 -414 -263 0
414 -444 -263 0
441 -388 -265 0
388 -441 -265 0
435 -432 -267 0
432 -435 -267 0
424 -338 -269 0
338 -424 -269 0
426 -353 -271 0
353 -426 -271 0
441 -388 -273 0
388 -441 -273 0
437 -319 -275 0
319 -437 -275 0
318 -354 -277 0
354 -318 -277 0
447 -407 -279 0
407 -447 -279 0
387 -356 -281 0
356 -387 -281 0
426 -391 -283 0
391 -426 -283 0
428 -359 -285 0
359 -428 -285 0
368 -376 -287 0
376 -368 -287 0
422 -314 -289 0
314 -422 -289 0
330 -335 -291 0
335 -330 -291 0
429 -328 -293 0
328 -429 -293 0
355 -326 -295 0
326 -355 -295 0
429 -433 -297 0
433 -429 -297 0
358 -320 -299 0
320 -358 -299 0
329 -384 -301 0
384 -329 -301 0
410 -320 -303 0
320 -410 -303 0
432 -343 -305 0
343 -432 -305 0
430 -323 -307 0
323 -430 -307 0
355 -392 -309 0
392 -355 -309 0
330 -321 -311 0
321 -330 -311 0

